
  14    4
  10   10   10   10

   0   0   0   0   0   2 2 3 
  10   0   0   0   0   1 4 
   1   1   4   1   0   1 4 
   9   5   0  10   0   1 5 
   4   0   7   0   0   1 6 
   4   0   0   0   2   1 7 
   3   0   6   9   5   1 8 
   4   9   7   0   6   1 9 
   3   9   3   0  10   2 11 10 
   4   7   9   6  10   1 12 
   5   0   0   0   0   1 12 
   9   8   0   0   0   1 13 
   5   0  10   0   0   1 14
   0   0   0   0   0   0 

TAO:7